
  22    4
  10   10   10   10

   0   0   0   0   0   9 2 3 4 5 6 8 13 15 21 
  10  10  10  10  10   4 20 18 12 10 
   9  10  10  10  10   2 12 7 
  10  10  10  10  10   3 19 11 9 
   2  10  10  10  10   3 19 17 9 
   4  10  10  10  10   5 20 19 18 17 16 
   3  10  10  10  10   2 18 10 
   7  10  10  10  10   3 19 17 14 
   6  10  10  10  10   3 20 18 16 
   2  10  10  10  10   1 11 
   9  10  10  10  10   2 17 16 
   7  10  10  10  10   2 19 16 
   4  10  10  10  10   2 20 18 
   4  10  10  10  10   1 16 
   9  10  10  10  10   1 16 
   7  10  10  10  10   1 22
   6  10  10  10  10   1 22
   9  10  10  10  10   1 22
   7  10  10  10  10   1 22
   7  10  10  10  10   1 22
   9  10  10  10  10   1 22
   0   0   0   0   0   0 
